Geometry = GenFormat {
 96 F
 Mg H
     1   1      0.000000000           0.000000000           0.000000000
     2   1      0.000000000           0.000000000           0.500000000
     3   1      0.000000000           0.500000000           0.000000000
     4   1      0.000000000           0.500000000           0.500000000
     5   1      0.500000000           0.000000000           0.000000000
     6   1      0.500000000           0.000000000           0.500000000
     7   1      0.500000000           0.500000000           0.000000000
     8   1      0.500000000           0.500000000           0.500000000
     9   1      0.000000000           0.250000000           0.250000000
    10   1     -0.000000000           0.250000000           0.750000025
    11   1     -0.000000000           0.750000025           0.250000000
    12   1     -0.000000000           0.750000025           0.750000025
    13   1      0.500000000           0.250000000           0.250000000
    14   1      0.500000000           0.250000000           0.750000025
    15   1      0.500000000           0.750000025           0.250000000
    16   1      0.500000000           0.750000025           0.750000025
    17   1      0.250000000           0.000000000           0.250000000
    18   1      0.250000000          -0.000000000           0.750000025
    19   1      0.250000000           0.500000000           0.250000000
    20   1      0.250000000           0.500000000           0.750000025
    21   1      0.750000025           0.000000000           0.250000000
    22   1      0.750000025          -0.000000000           0.750000025
    23   1      0.750000025           0.500000000           0.250000000
    24   1      0.750000025           0.500000000           0.750000025
    25   1      0.250000000           0.250000000           0.000000000
    26   1      0.250000000           0.250000000           0.500000000
    27   1      0.250000000           0.750000025           0.000000000
    28   1      0.250000000           0.750000025           0.500000000
    29   1      0.750000025           0.250000000           0.000000000
    30   1      0.750000025           0.250000000           0.500000000
    31   1      0.750000025           0.750000025           0.000000000
    32   1      0.750000025           0.750000025           0.500000000
    33   2      0.375000013           0.375000013           0.375000013
    34   2      0.375000013           0.375000013           0.875000013
    35   2      0.375000013           0.875000013           0.375000013
    36   2      0.375000013           0.875000013           0.875000013
    37   2      0.875000013           0.375000013           0.375000013
    38   2      0.875000013           0.375000013           0.875000013
    39   2      0.875000013           0.875000013           0.375000013
    40   2      0.875000013           0.875000013           0.875000013
    41   2      0.375000013           0.125000000           0.375000013
    42   2      0.375000013           0.125000000           0.875000013
    43   2      0.375000013           0.624999987           0.375000013
    44   2      0.375000013           0.624999987           0.875000013
    45   2      0.875000013           0.125000000           0.375000013
    46   2      0.875000013           0.125000000           0.875000013
    47   2      0.875000013           0.624999987           0.375000013
    48   2      0.875000013           0.624999987           0.875000013
    49   2      0.375000013           0.125000000           0.125000000
    50   2      0.375000013           0.125000000           0.624999987
    51   2      0.375000013           0.624999987           0.125000000
    52   2      0.375000013           0.624999987           0.624999987
    53   2      0.875000013           0.125000000           0.125000000
    54   2      0.875000013           0.125000000           0.624999987
    55   2      0.875000013           0.624999987           0.125000000
    56   2      0.875000013           0.624999987           0.624999987
    57   2      0.375000013           0.375000013           0.125000000
    58   2      0.375000013           0.375000013           0.624999987
    59   2      0.375000013           0.875000013           0.125000000
    60   2      0.375000013           0.875000013           0.624999987
    61   2      0.875000013           0.375000013           0.125000000
    62   2      0.875000013           0.375000013           0.624999987
    63   2      0.875000013           0.875000013           0.125000000
    64   2      0.875000013           0.875000013           0.624999987
    65   2      0.125000000           0.375000013           0.125000000
    66   2      0.125000000           0.375000013           0.624999987
    67   2      0.125000000           0.875000013           0.125000000
    68   2      0.125000000           0.875000013           0.624999987
    69   2      0.624999987           0.375000013           0.125000000
    70   2      0.624999987           0.375000013           0.624999987
    71   2      0.624999987           0.875000013           0.125000000
    72   2      0.624999987           0.875000013           0.624999987
    73   2      0.125000000           0.125000000           0.125000000
    74   2      0.125000000           0.125000000           0.624999987
    75   2      0.125000000           0.624999987           0.125000000
    76   2      0.125000000           0.624999987           0.624999987
    77   2      0.624999987           0.125000000           0.125000000
    78   2      0.624999987           0.125000000           0.624999987
    79   2      0.624999987           0.624999987           0.125000000
    80   2      0.624999987           0.624999987           0.624999987
    81   2      0.125000000           0.125000000           0.375000013
    82   2      0.125000000           0.125000000           0.875000013
    83   2      0.125000000           0.624999987           0.375000013
    84   2      0.125000000           0.624999987           0.875000013
    85   2      0.624999987           0.125000000           0.375000013
    86   2      0.624999987           0.125000000           0.875000013
    87   2      0.624999987           0.624999987           0.375000013
    88   2      0.624999987           0.624999987           0.875000013
    89   2      0.125000000           0.375000013           0.375000013
    90   2      0.125000000           0.375000013           0.875000013
    91   2      0.125000000           0.875000013           0.375000013
    92   2      0.125000000           0.875000013           0.875000013
    93   2      0.624999987           0.375000013           0.375000013
    94   2      0.624999987           0.375000013           0.875000013
    95   2      0.624999987           0.875000013           0.375000013
    96   2      0.624999987           0.875000013           0.875000013
        0.0000000000         0.0000000000         0.0000000000
        9.5242700577         0.0000000000         0.0000000000
        0.0000000000         9.5242700577         0.0000000000
        0.0000000000         0.0000000000         9.5242700577
}

Driver = VelocityVerlet {
  Xlbomd {
    PreSteps = 4
    IntegrationSteps = 6
    MinSccIterations = 2
    MaxSccIterations = 200
    SccTolerance = 1e-5
  }
  TimeStep [fs] = 2.0
  Thermostat = None {
    InitialTemperature [Kelvin] = 400.0
  }
  Steps = 500 # 1.0 ps total
  MovedAtoms = 1:-1
}

Hamiltonian = DFTB {
  SCC = Yes
  SCCTolerance = 1e-3
  Filling = Fermi {
    Temperature [Kelvin] = 400.0
  }
  SlaterKosterFiles = Type2FileNames {
   Prefix = ".\3ob-3-1\"
   Separator = "-"
   Suffix = ".skf" 
  }
  MaxAngularMomentum {
    Mg = "p"
     H = "s"
  }
  KPointsAndWeights = SupercellFolding {
   1 0 0
   0 1 0
   0 0 1
   0.0 0.0 0.0
  }
  ForceEvaluation = Dynamics
  Eigensolver = DivideAndConquer {}
  ThirdOrderFull = Yes
  HubbardDerivs {
    #C = -0.1492
    H = -0.1857
    #O = -0.1575
    #N = -0.1535
    #S = -0.11
    #P = -0.14
    Mg = -0.02
  }
  DampXH = Yes
  DampXHExponent = 4.00
  #HCorrection = H5 {}
  Dispersion = DftD3 {
    Damping = BeckeJohnson {
      a1 = 0.746
      a2 = 4.191
    }
    s6 = 1.0
    s8 = 3.209
    #Threebody = Yes
  }
}

Options {
  RandomSeed = 3871906
  WriteAutotestTag = Yes
}

ParserOptions {
  ParserVersion = 6
}

#Parallel {
  # Allow OMP threads explicitely to test for hybrid parallelisation with
  # MPI-binary. (Check the manual before using this in production runs!)
#  UseOmpThreads = Yes
#}

