Geometry = GenFormat {
80 F
Al O
     1   1     0.126075997         0.015257000         0.390394974
     2   1     0.126075997         0.515256977         0.390394974
     3   1     0.626075985         0.015257000         0.390394974
     4   1     0.626075985         0.515256977         0.390394974
     5   1     0.126075997         0.234742999         0.609604993
     6   1     0.126075997         0.734742999         0.609604993
     7   1     0.626075985         0.234742999         0.609604993
     8   1     0.626075985         0.734742999         0.609604993
     9   1     0.123924003         0.265257001         0.109605001
    10   1     0.123924003         0.765257001         0.109605001
    11   1     0.623924039         0.265257001         0.109605001
    12   1     0.623924039         0.765257001         0.109605001
    13   1     0.123924003         0.484743023         0.890395007
    14   1     0.123924003         0.984743023         0.890395007
    15   1     0.623924039         0.484743023         0.890395007
    16   1     0.623924039         0.984743023         0.890395007
    17   1     0.373923990         0.484743023         0.609604993
    18   1     0.373923990         0.984743023         0.609604993
    19   1     0.873924064         0.484743023         0.609604993
    20   1     0.873924064         0.984743023         0.609604993
    21   1     0.373923990         0.265257001         0.390394974
    22   1     0.373923990         0.765257001         0.390394974
    23   1     0.873924064         0.265257001         0.390394974
    24   1     0.873924064         0.765257001         0.390394974
    25   1     0.376076010         0.234742999         0.890395007
    26   1     0.376076010         0.734742999         0.890395007
    27   1     0.876076010         0.234742999         0.890395007
    28   1     0.876076010         0.734742999         0.890395007
    29   1     0.376076010         0.015257000         0.109605001
    30   1     0.376076010         0.515256977         0.109605001
    31   1     0.876076010         0.015257000         0.109605001
    32   1     0.876076010         0.515256977         0.109605001
    33   2     0.053510500         0.050988001         0.654001995
    34   2     0.053510500         0.550988025         0.654001995
    35   2     0.553510488         0.050988001         0.654001995
    36   2     0.553510488         0.550988025         0.654001995
    37   2     0.053510500         0.199011999         0.345998005
    38   2     0.053510500         0.699011999         0.345998005
    39   2     0.553510488         0.199011999         0.345998005
    40   2     0.553510488         0.699011999         0.345998005
    41   2     0.196489500         0.300987977         0.845998005
    42   2     0.196489500         0.800987953         0.845998005
    43   2     0.696489537         0.300987977         0.845998005
    44   2     0.696489537         0.800987953         0.845998005
    45   2     0.196489500         0.449012023         0.154001995
    46   2     0.196489500         0.949012023         0.154001995
    47   2     0.696489537         0.449012023         0.154001995
    48   2     0.696489537         0.949012023         0.154001995
    49   2     0.446489512         0.449012023         0.345998005
    50   2     0.446489512         0.949012023         0.345998005
    51   2     0.946489512         0.449012023         0.345998005
    52   2     0.946489512         0.949012023         0.345998005
    53   2     0.446489512         0.300987977         0.654001995
    54   2     0.446489512         0.800987953         0.654001995
    55   2     0.946489512         0.300987977         0.654001995
    56   2     0.946489512         0.800987953         0.654001995
    57   2     0.303510488         0.199011999         0.154001995
    58   2     0.303510488         0.699011999         0.154001995
    59   2     0.803510463         0.199011999         0.154001995
    60   2     0.803510463         0.699011999         0.154001995
    61   2     0.303510488         0.050988001         0.845998005
    62   2     0.303510488         0.550988025         0.845998005
    63   2     0.803510463         0.050988001         0.845998005
    64   2     0.803510463         0.550988025         0.845998005
    65   2     0.024701999         0.125000000         0.000000000
    66   2     0.024701999         0.625000012         0.000000000
    67   2     0.524702022         0.125000000         0.000000000
    68   2     0.524702022         0.625000012         0.000000000
    69   2     0.225298003         0.374999988         0.500000000
    70   2     0.225298003         0.874999988         0.500000000
    71   2     0.725298003         0.374999988         0.500000000
    72   2     0.725298003         0.874999988         0.500000000
    73   2     0.475297978         0.374999988         0.000000000
    74   2     0.475297978         0.874999988         0.000000000
    75   2     0.975297978         0.374999988         0.000000000
    76   2     0.975297978         0.874999988         0.000000000
    77   2     0.274702022         0.125000000         0.500000000
    78   2     0.274702022         0.625000012         0.500000000
    79   2     0.774701997         0.125000000         0.500000000
    80   2     0.774701997         0.625000012         0.500000000
        0.0000000000         0.0000000000         0.0000000000
        9.6938657761         0.0000000000         0.0000000000
        0.0000000000         9.9708089828         0.0000000000
        0.0000000000         0.0000000000         7.0899410248
}

Driver = VelocityVerlet {
  TimeStep [fs] = 2.0
  MovedAtoms = 1:-1
  Thermostat = Berendsen {
    TimeScale [fs] = 100
    AdaptFillingTemp = Yes
    Temperature [Kelvin] = TemperatureProfile {
        constant     100  600.0
        linear       100  700.0
        exponential  200  500.0
    }
  }
  Barostat {
    Pressure [Pa] = 1e5 # about 1 atm (0.1 MPa)
    Timescale [ps] = 0.05 # about 0.01 - 0.1 ps
  }
}

Hamiltonian = DFTB {
  SCC = Yes
  SCCTolerance = 1e-5
  SlaterKosterFiles = Type2FileNames {
   Prefix = ".\matsci-0-3_AlOH\"
   Separator = "-"
   Suffix = ".skf" 
  }
  MaxAngularMomentum {
    Al = "p"
     O = "p"
  }
  KPointsAndWeights = SupercellFolding {
   1 0 0
   0 1 0
   0 0 1
   0.0 0.0 0.0
  }
  ForceEvaluation = Dynamics
  Eigensolver = DivideAndConquer {}
}

Options {
  RandomSeed = 3871906
  WriteAutotestTag = Yes
}

ParserOptions {
  ParserVersion = 6
}

#Parallel {
  # Allow OMP threads explicitely to test for hybrid parallelisation with
  # MPI-binary. (Check the manual before using this in production runs!)
#  UseOmpThreads = Yes
#}

