Geometry = GenFormat {
192 F
Si O
     1   1     0.125000000         0.125000000         0.375000000
     2   1     0.125000000         0.125000000         0.875000000
     3   1     0.125000000         0.625000000         0.375000000
     4   1     0.125000000         0.625000000         0.875000000
     5   1     0.625000000         0.125000000         0.375000000
     6   1     0.625000000         0.125000000         0.875000000
     7   1     0.625000000         0.625000000         0.375000000
     8   1     0.625000000         0.625000000         0.875000000
     9   1     0.000000000         0.000000000         0.250000000
    10   1     0.000000000         0.000000000         0.750000000
    11   1     0.000000000         0.500000000         0.250000000
    12   1     0.000000000         0.500000000         0.750000000
    13   1     0.500000000         0.000000000         0.250000000
    14   1     0.500000000         0.000000000         0.750000000
    15   1     0.500000000         0.500000000         0.250000000
    16   1     0.500000000         0.500000000         0.750000000
    17   1     0.125000000         0.375000000         0.125000000
    18   1     0.125000000         0.375000000         0.625000000
    19   1     0.125000000         0.875000000         0.125000000
    20   1     0.125000000         0.875000000         0.625000000
    21   1     0.625000000         0.375000000         0.125000000
    22   1     0.625000000         0.375000000         0.625000000
    23   1     0.625000000         0.875000000         0.125000000
    24   1     0.625000000         0.875000000         0.625000000
    25   1     0.000000000         0.250000000         0.000000000
    26   1     0.000000000         0.250000000         0.500000000
    27   1     0.000000000         0.750000000         0.000000000
    28   1     0.000000000         0.750000000         0.500000000
    29   1     0.500000000         0.250000000         0.000000000
    30   1     0.500000000         0.250000000         0.500000000
    31   1     0.500000000         0.750000000         0.000000000
    32   1     0.500000000         0.750000000         0.500000000
    33   1     0.375000000         0.125000000         0.125000000
    34   1     0.375000000         0.125000000         0.625000000
    35   1     0.375000000         0.625000000         0.125000000
    36   1     0.375000000         0.625000000         0.625000000
    37   1     0.875000000         0.125000000         0.125000000
    38   1     0.875000000         0.125000000         0.625000000
    39   1     0.875000000         0.625000000         0.125000000
    40   1     0.875000000         0.625000000         0.625000000
    41   1     0.250000000         0.000000000         0.000000000
    42   1     0.250000000         0.000000000         0.500000000
    43   1     0.250000000         0.500000000         0.000000000
    44   1     0.250000000         0.500000000         0.500000000
    45   1     0.750000000         0.000000000         0.000000000
    46   1     0.750000000         0.000000000         0.500000000
    47   1     0.750000000         0.500000000         0.000000000
    48   1     0.750000000         0.500000000         0.500000000
    49   1     0.375000000         0.375000000         0.375000000
    50   1     0.375000000         0.375000000         0.875000000
    51   1     0.375000000         0.875000000         0.375000000
    52   1     0.375000000         0.875000000         0.875000000
    53   1     0.875000000         0.375000000         0.375000000
    54   1     0.875000000         0.375000000         0.875000000
    55   1     0.875000000         0.875000000         0.375000000
    56   1     0.875000000         0.875000000         0.875000000
    57   1     0.250000000         0.250000000         0.250000000
    58   1     0.250000000         0.250000000         0.750000000
    59   1     0.250000000         0.750000000         0.250000000
    60   1     0.250000000         0.750000000         0.750000000
    61   1     0.750000000         0.250000000         0.250000000
    62   1     0.750000000         0.250000000         0.750000000
    63   1     0.750000000         0.750000000         0.250000000
    64   1     0.750000000         0.750000000         0.750000000
    65   2     0.187500000         0.437500000         0.062500000
    66   2     0.187500000         0.437500000         0.562500000
    67   2     0.187500000         0.937500000         0.062500000
    68   2     0.187500000         0.937500000         0.562500000
    69   2     0.687500000         0.437500000         0.062500000
    70   2     0.687500000         0.437500000         0.562500000
    71   2     0.687500000         0.937500000         0.062500000
    72   2     0.687500000         0.937500000         0.562500000
    73   2     0.187500000         0.062500000         0.437500000
    74   2     0.187500000         0.062500000         0.937500000
    75   2     0.187500000         0.562500000         0.437500000
    76   2     0.187500000         0.562500000         0.937500000
    77   2     0.687500000         0.062500000         0.437500000
    78   2     0.687500000         0.062500000         0.937500000
    79   2     0.687500000         0.562500000         0.437500000
    80   2     0.687500000         0.562500000         0.937500000
    81   2     0.312500000         0.062500000         0.062500000
    82   2     0.312500000         0.062500000         0.562500000
    83   2     0.312500000         0.562500000         0.062500000
    84   2     0.312500000         0.562500000         0.562500000
    85   2     0.812500000         0.062500000         0.062500000
    86   2     0.812500000         0.062500000         0.562500000
    87   2     0.812500000         0.562500000         0.062500000
    88   2     0.812500000         0.562500000         0.562500000
    89   2     0.062500000         0.437500000         0.187500000
    90   2     0.062500000         0.437500000         0.687500000
    91   2     0.062500000         0.937500000         0.187500000
    92   2     0.062500000         0.937500000         0.687500000
    93   2     0.562500000         0.437500000         0.187500000
    94   2     0.562500000         0.437500000         0.687500000
    95   2     0.562500000         0.937500000         0.187500000
    96   2     0.562500000         0.937500000         0.687500000
    97   2     0.187500000         0.187500000         0.312500000
    98   2     0.187500000         0.187500000         0.812500000
    99   2     0.187500000         0.687500000         0.312500000
   100   2     0.187500000         0.687500000         0.812500000
   101   2     0.687500000         0.187500000         0.312500000
   102   2     0.687500000         0.187500000         0.812500000
   103   2     0.687500000         0.687500000         0.312500000
   104   2     0.687500000         0.687500000         0.812500000
   105   2     0.187500000         0.312500000         0.187500000
   106   2     0.187500000         0.312500000         0.687500000
   107   2     0.187500000         0.812500000         0.187500000
   108   2     0.187500000         0.812500000         0.687500000
   109   2     0.687500000         0.312500000         0.187500000
   110   2     0.687500000         0.312500000         0.687500000
   111   2     0.687500000         0.812500000         0.187500000
   112   2     0.687500000         0.812500000         0.687500000
   113   2     0.312500000         0.312500000         0.312500000
   114   2     0.312500000         0.312500000         0.812500000
   115   2     0.312500000         0.812500000         0.312500000
   116   2     0.312500000         0.812500000         0.812500000
   117   2     0.812500000         0.312500000         0.312500000
   118   2     0.812500000         0.312500000         0.812500000
   119   2     0.812500000         0.812500000         0.312500000
   120   2     0.812500000         0.812500000         0.812500000
   121   2     0.062500000         0.187500000         0.437500000
   122   2     0.062500000         0.187500000         0.937500000
   123   2     0.062500000         0.687500000         0.437500000
   124   2     0.062500000         0.687500000         0.937500000
   125   2     0.562500000         0.187500000         0.437500000
   126   2     0.562500000         0.187500000         0.937500000
   127   2     0.562500000         0.687500000         0.437500000
   128   2     0.562500000         0.687500000         0.937500000
   129   2     0.437500000         0.437500000         0.312500000
   130   2     0.437500000         0.437500000         0.812500000
   131   2     0.437500000         0.937500000         0.312500000
   132   2     0.437500000         0.937500000         0.812500000
   133   2     0.937500000         0.437500000         0.312500000
   134   2     0.937500000         0.437500000         0.812500000
   135   2     0.937500000         0.937500000         0.312500000
   136   2     0.937500000         0.937500000         0.812500000
   137   2     0.437500000         0.062500000         0.187500000
   138   2     0.437500000         0.062500000         0.687500000
   139   2     0.437500000         0.562500000         0.187500000
   140   2     0.437500000         0.562500000         0.687500000
   141   2     0.937500000         0.062500000         0.187500000
   142   2     0.937500000         0.062500000         0.687500000
   143   2     0.937500000         0.562500000         0.187500000
   144   2     0.937500000         0.562500000         0.687500000
   145   2     0.062500000         0.062500000         0.312500000
   146   2     0.062500000         0.062500000         0.812500000
   147   2     0.062500000         0.562500000         0.312500000
   148   2     0.062500000         0.562500000         0.812500000
   149   2     0.562500000         0.062500000         0.312500000
   150   2     0.562500000         0.062500000         0.812500000
   151   2     0.562500000         0.562500000         0.312500000
   152   2     0.562500000         0.562500000         0.812500000
   153   2     0.312500000         0.437500000         0.437500000
   154   2     0.312500000         0.437500000         0.937500000
   155   2     0.312500000         0.937500000         0.437500000
   156   2     0.312500000         0.937500000         0.937500000
   157   2     0.812500000         0.437500000         0.437500000
   158   2     0.812500000         0.437500000         0.937500000
   159   2     0.812500000         0.937500000         0.437500000
   160   2     0.812500000         0.937500000         0.937500000
   161   2     0.437500000         0.187500000         0.062500000
   162   2     0.437500000         0.187500000         0.562500000
   163   2     0.437500000         0.687500000         0.062500000
   164   2     0.437500000         0.687500000         0.562500000
   165   2     0.937500000         0.187500000         0.062500000
   166   2     0.937500000         0.187500000         0.562500000
   167   2     0.937500000         0.687500000         0.062500000
   168   2     0.937500000         0.687500000         0.562500000
   169   2     0.437500000         0.312500000         0.437500000
   170   2     0.437500000         0.312500000         0.937500000
   171   2     0.437500000         0.812500000         0.437500000
   172   2     0.437500000         0.812500000         0.937500000
   173   2     0.937500000         0.312500000         0.437500000
   174   2     0.937500000         0.312500000         0.937500000
   175   2     0.937500000         0.812500000         0.437500000
   176   2     0.937500000         0.812500000         0.937500000
   177   2     0.062500000         0.312500000         0.062500000
   178   2     0.062500000         0.312500000         0.562500000
   179   2     0.062500000         0.812500000         0.062500000
   180   2     0.062500000         0.812500000         0.562500000
   181   2     0.562500000         0.312500000         0.062500000
   182   2     0.562500000         0.312500000         0.562500000
   183   2     0.562500000         0.812500000         0.062500000
   184   2     0.562500000         0.812500000         0.562500000
   185   2     0.312500000         0.187500000         0.187500000
   186   2     0.312500000         0.187500000         0.687500000
   187   2     0.312500000         0.687500000         0.187500000
   188   2     0.312500000         0.687500000         0.687500000
   189   2     0.812500000         0.187500000         0.187500000
   190   2     0.812500000         0.187500000         0.687500000
   191   2     0.812500000         0.687500000         0.187500000
   192   2     0.812500000         0.687500000         0.687500000
        0.0000000000         0.0000000000         0.0000000000
       14.9217376709         0.0000000000         0.0000000000
        0.0000000000        14.9217376709         0.0000000000
        0.0000000000         0.0000000000        14.9217376709
}

Driver = VelocityVerlet {
  Xlbomd {
    PreSteps = 4
    IntegrationSteps = 6
    MinSccIterations = 2
    MaxSccIterations = 200
    SccTolerance = 1e-5
  }
  TimeStep [fs] = 2.0
  Thermostat = None {
    InitialTemperature [Kelvin] = 400.0
  }
  Steps = 500 # 1.0 ps total
  MovedAtoms = 1:-1
}

Hamiltonian = DFTB {
  SCC = Yes
  SCCTolerance = 1e-5
  Filling = Fermi {
    Temperature [Kelvin] = 400.0
  }
  SlaterKosterFiles = Type2FileNames {
   Prefix = ".\matsci-0-3\"
   Separator = "-"
   Suffix = ".skf" 
  }
  MaxAngularMomentum {
    Si = "p"
     O = "p"
  }
  KPointsAndWeights = SupercellFolding {
   1 0 0
   0 1 0
   0 0 1
   0.0 0.0 0.0
  }
  ForceEvaluation = Dynamics
  Eigensolver = DivideAndConquer {}
}

Options {
  RandomSeed = 3871906
  WriteAutotestTag = Yes
}

ParserOptions {
  ParserVersion = 6
}

#Parallel {
  # Allow OMP threads explicitely to test for hybrid parallelisation with
  # MPI-binary. (Check the manual before using this in production runs!)
#  UseOmpThreads = Yes
#}

