Geometry = GenFormat {
72  F
 C H
     1    1     0.630799979         0.215499990         0.302800006
     2    1     0.369199985         0.715499990         0.697200010
     3    1     0.543400006         0.044899999         0.260699980
     4    1     0.456600014         0.544899985         0.739300001
     5    1     0.506499976         0.045800001         0.158899995
     6    1     0.493499987         0.545799963         0.841099950
     7    1     0.559800030         0.207000003         0.099299993
     8    1     0.440199990         0.706999984         0.900699987
     9    1     0.644900001         0.380800005         0.133599996
    10    1     0.355099963         0.880800005         0.866399984
    11    1     0.677000006         0.384800005         0.237000004
    12    1     0.323000015         0.884799967         0.763000012
    13    1     0.764500012         0.554099982         0.278699989
    14    1     0.235499981         0.054100036         0.721299991
    15    1     0.802299978         0.568600009         0.377099978
    16    1     0.197700028         0.068599941         0.622900002
    17    1     0.763299999         0.399200000         0.443899977
    18    1     0.236700008         0.899200000         0.556100004
    19    1     0.676699994         0.225600004         0.406899997
    20    1     0.323299999         0.725600043         0.593100019
    21    1     0.626900040         0.054000004         0.471299996
    22    1     0.373099981         0.554000028         0.528699984
    23    1     0.670500023         0.050999998         0.571899999
    24    1     0.329500026         0.550999998         0.428099981
    25    1     0.759899979         0.231600005         0.607299956
    26    1     0.240100027         0.731600024         0.392700024
    27    1     0.806200041         0.401199981         0.546400016
    28    1     0.193799966         0.901200020         0.453599965
    29    1     0.894200003         0.573899999         0.586399950
    30    1     0.105799975         0.073899984         0.413600031
    31    1     0.938000046         0.580399985         0.683799943
    32    1     0.061999974         0.080399990         0.316200002
    33    1     0.898699990         0.408800009         0.749999985
    34    1     0.101300002         0.908799970         0.249999995
    35    1     0.808999993         0.235799992         0.712499937
    36    1     0.190999985         0.735800050         0.287500026
    37    1     0.768599977         0.072800001         0.778100024
    38    1     0.231400015         0.572799996         0.221899974
    39    1     0.819000046         0.082900000         0.877600002
    40    1     0.181000003         0.582899971         0.122399987
    41    1     0.907400043         0.255600009         0.910599960
    42    1     0.092599991         0.755599951         0.089399994
    43    1     0.949099988         0.421799982         0.849199986
    44    1     0.050899983         0.921800021         0.150799994
    45    2     0.505100001         0.912599946         0.306600007
    46    2     0.494899964         0.412600023         0.693400009
    47    2     0.434399984         0.916200012         0.127399996
    48    2     0.565600009         0.416199973         0.872600019
    49    2     0.533999943         0.198300010         0.021700000
    50    2     0.466000021         0.698299991         0.978299963
    51    2     0.685700032         0.505500015         0.083999996
    52    2     0.314300017         0.005500078         0.915999984
    53    2     0.806099986         0.683499985         0.230299988
    54    2     0.193899993         0.183500043         0.769700010
    55    2     0.862800022         0.712499960         0.404199985
    56    2     0.137199999         0.212499980         0.595800031
    57    2     0.554700048         0.924799973         0.442199997
    58    2     0.445299973         0.424800012         0.557799984
    59    2     0.636900004         0.917900013         0.620299983
    60    2     0.363099988         0.417900013         0.379699998
    61    2     0.929099966         0.704500037         0.538399972
    62    2     0.070900026         0.204499959         0.461600008
    63    2     0.005599975         0.717699996         0.710699929
    64    2     0.994399977         0.217699996         0.289300016
    65    2     0.695800056         0.938899988         0.753499938
    66    2     0.304199992         0.438899988         0.246500007
    67    2     0.789099990         0.952699984         0.927399988
    68    2     0.210900016         0.452699984         0.072600006
    69    2     0.943599958         0.260800006         0.986999954
    70    2     0.056400003         0.760799986         0.013000011
    71    2     0.018000007         0.557800003         0.875899987
    72    2     0.982000008         0.057800056         0.124100029
        0.0000000000         0.0000000000         0.0000000000
        8.4799995422         0.0000000000         0.0000000000
        0.0000000000         6.1539998055         0.0000000000
       -0.1085039954         0.0000000000        13.5145647789
}

Driver = ConjugateGradient {
  LatticeOpt = Yes
  MovedAtoms = 1:-1
  MaxForceComponent = 1.0e-4 # 0.0001
  #MaxSteps = 1000
  #OutputPrefix = "geom.out"
}

Hamiltonian = DFTB {
  SCC = Yes
  SCCTolerance = 1.0e-3 # 0.001
  Charge =  0.0
  SlaterKosterFiles = Type2FileNames {
    Prefix = ".\mio-1-1\"
    Separator = "-"
    Suffix = ".skf"
  }
  KPointsAndWeights = SupercellFolding {
    2 0 0
    0 2 0
    0 0 1
    0.0 0.0 0.0
  }
  MaxAngularMomentum {
    C = "p"
    H = "s"
  }
  #ThirdOrderFull = Yes
  #HubbardDerivs {
  #  C = -0.1492
  #  H = -0.1857
    #O = -0.1575
    #N = -0.1535
    #S = -0.11
    #P = -0.14
  #}
  #DampXH = Yes
  #DampXHExponent = 4.00
  #HCorrection = H5 {}
  Dispersion = DftD3 {
    Damping = BeckeJohnson {
      a1 = 0.5719
      a2 = 3.6017
    }
    s6 = 1.0
    s8 = 0.5883
    #Threebody = Yes
  }
}

Options = {
  WriteAutotestTag = Yes
}

Analysis = {
  CalculateForces = Yes
}

ParserOptions = {
  ParserVersion = 6
}

#Parallel {
  # Allow OMP threads explicitely to test for hybrid parallelisation with
  # MPI-binary. (Check the manual before using this in production runs!)
#  UseOmpThreads = Yes
#}