Geometry = GenFormat {
71  F
 Zn O
     1    1    0.222222222222222   0.111111111111111   0.250274000000000
     2    1    0.222222222222222   0.444444444444444   0.750274000000000
     3    1    0.555555555555556   0.111111111111111   0.250274000000000
     4    1    0.555555555555556   0.444444444444444   0.750274000000000
     5    1    0.888888888888889   0.111111111111111   0.250274000000000
     6    1    0.888888888888889   0.444444444444444   0.750274000000000
     7    1    0.222222222222222   0.444444444444444   0.250274000000000
     8    1    0.222222222222222   0.777777777777778   0.750274000000000
     9    1    0.555555555555556   0.444444444444444   0.250274000000000
    10    1    0.555555555555555   0.777777777777778   0.750274000000000
    11    1    0.888888888888889   0.444444444444444   0.250274000000000
    12    1    0.888888888888889   0.777777777777778   0.750274000000000
    13    1    0.222222222222222   0.111111111111111   0.750274000000000
    14    1    0.222222222222222   0.777777777777778   0.250274000000000
    15    1    0.555555555555555   0.777777777777778   0.250274000000000
    16    1    0.888888888888889   0.777777777777778   0.250274000000000
    17    1    0.555555555555556   0.111111111111111   0.750274000000000
    18    1    0.888888888888889   0.111111111111111   0.750274000000000
    19    1    0.111111111111111   0.222222222222222   0.000274000000000
    20    1    0.111111111111111   0.555555555555555   0.500274000000000
    21    1    0.444444444444444   0.222222222222222   0.000274000000000
    22    1    0.444444444444444   0.555555555555555   0.500274000000000
    23    1    0.777777777777778   0.222222222222222   0.000274000000000
    24    1    0.777777777777778   0.555555555555555   0.500274000000000
    25    1    0.111111111111111   0.555555555555555   0.000274000000000
    26    1    0.111111111111111   0.888888888888889   0.500274000000000
    27    1    0.444444444444444   0.555555555555555   0.000274000000000
    28    1    0.444444444444444   0.888888888888889   0.500274000000000
    29    1    0.777777777777778   0.555555555555555   0.000274000000000
    30    1    0.777777777777778   0.888888888888889   0.500274000000000
    31    1    0.111111111111111   0.222222222222222   0.500274000000000
    32    1    0.111111111111111   0.888888888888889   0.000274000000000
    33    1    0.444444444444444   0.888888888888889   0.000274000000000
    34    1    0.777777777777778   0.888888888888889   0.000274000000000
    35    1    0.444444444444444   0.222222222222222   0.500274000000000
    36    1    0.777777777777778   0.222222222222222   0.500274000000000
    37    2    0.222222222222222   0.111111111111111   0.439881000000000
    38    2    0.222222222222222   0.444444444444444   0.939881000000000
    39    2    0.555555555555556   0.111111111111111   0.439881000000000
    40    2    0.555555555555556   0.444444444444444   0.939881000000000
    41    2    0.888888888888889   0.111111111111111   0.439881000000000
    42    2    0.888888888888889   0.444444444444444   0.939881000000000
    43    2    0.222222222222222   0.444444444444444   0.439881000000000
    44    2    0.222222222222222   0.777777777777778   0.939881000000000
    45    2    0.555555555555556   0.444444444444444   0.439881000000000
    46    2    0.555555555555555   0.777777777777778   0.939881000000000
    47    2    0.888888888888889   0.444444444444444   0.439881000000000
    48    2    0.888888888888889   0.777777777777778   0.939881000000000
    49    2    0.222222222222222   0.111111111111111   0.939881000000000
    50    2    0.222222222222222   0.777777777777778   0.439881000000000
    51    2    0.555555555555555   0.777777777777778   0.439881000000000
    52    2    0.888888888888889   0.777777777777778   0.439881000000000
    53    2    0.555555555555556   0.111111111111111   0.939881000000000
    54    2    0.888888888888889   0.111111111111111   0.939881000000000
    55    2    0.111111111111111   0.222222222222222   0.189881000000000
    56    2    0.111111111111111   0.555555555555555   0.689881000000000
    57    2    0.444444444444444   0.222222222222222   0.189881000000000
    58    2    0.444444444444444   0.555555555555555   0.689881000000000
    59    2    0.777777777777778   0.222222222222222   0.189881000000000
    60    2    0.777777777777778   0.555555555555555   0.689881000000000
    61    2    0.111111111111111   0.555555555555555   0.189881000000000
    62    2    0.111111111111111   0.888888888888889   0.689881000000000
    63    2    0.444444444444444   0.555555555555555   0.189881000000000
    64    2    0.444444444444444   0.888888888888889   0.689881000000000
    65    2    0.777777777777778   0.555555555555555   0.189881000000000
    66    2    0.777777777777778   0.888888888888889   0.689881000000000
    67    2    0.111111111111111   0.222222222222222   0.689881000000000
    68    2    0.111111111111111   0.888888888888889   0.189881000000000
    69    2    0.444444444444444   0.888888888888889   0.189881000000000
    70    2    0.777777777777778   0.888888888888889   0.189881000000000
    71    2    0.444444444444444   0.222222222222222   0.689881000000000
        0.0000000000         0.0000000000         0.0000000000
        6.6000000000         0.0000000000         0.0000000000
       -3.3020000000         5.7200000000         0.0000000000
        0.0000000000         0.0000000000        10.6800000000
}

#Driver = {}
Driver = ConjugateGradient {
  LatticeOpt = No
  MovedAtoms = 1:-1
}

Hamiltonian = DFTB {
  SCC = Yes
  SCCTolerance = 1.0E-5
  MaxSCCIterations = 1000
  Mixer = Broyden {}
  MaxAngularMomentum = {
    Zn = "d"
     O = "p"
  }
  Charge = 0.0
  SpinPolarisation = Colinear {
    RelaxTotalSpin = Yes
    #UnpairedElectrons = 0.0
    #InitialSpins = {
    #  AtomSpin = {
    #    Atoms = 1:1
    #    SpinPerAtom = -2.0
    #  }
    #  AtomSpin = {
    #    Atoms = 2:2
    #    SpinPerAtom = +2.0
    #  }
    #}
  }
  SpinConstants {
    Zn {
      -0.021 #Wdd
    }
    O {
      -0.028 #Wpp
    }
  }
  Filling = MethfesselPaxton {
    Temperature [Kelvin] = 5.0e+2
    Order = 2
  }
  SlaterKosterFiles = Type2FileNames {
    Prefix = ".\znorg-0-1\"
    Separator = "-"
    Suffix = ".skf"
  }
  KPointsAndWeights = SupercellFolding {
   2 0 0
   0 2 0
   0 0 2
   0.5 0.5 0.5
  }
  #OrbitalPotential = {
  #  Functional = {pSIC}
  #  Zn = {
  #    Shells = {1 2}
  #    #UJ = 0.05209025
  #    UJ = 0.039462
  #  }
  #  Zn = {
  #    Shells = {3}
  #    UJ = 0.05209025
  #    #UJ = 0.039462
  #  }
  #  O = {
  #    Shells = {1 2}
  #    UJ = 0.068207
  #    #UJ = 0.090033
  #  }
  #}
}

Options = {
  WriteAutotestTag = Yes
  #CalculateForces = Yes
}

ParserOptions = {
  ParserVersion = 8
}

#Parallel {
  # Allow OMP threads explicitely to test for hybrid parallelisation with
  # MPI-binary. (Check the manual before using this in production runs!)
#  UseOmpThreads = Yes
#}
