Geometry = GenFormat {
84  F
 S C H
     1    1     0.733100004         0.750000000         0.198699995
     2    1     0.266899996         0.250000000         0.801299974
     3    1     0.766899996         0.250000000         0.698700026
     4    1     0.233099940         0.750000000         0.301299974
     5    1     0.035650014         0.673020037         0.788400014
     6    1     0.964349943         0.326980001         0.211600001
     7    1     0.464349986         0.326980001         0.288399984
     8    1     0.535650014         0.673020037         0.711599986
     9    1     0.964349943         0.173019999         0.211600001
    10    1     0.035650014         0.826979963         0.788400014
    11    1     0.535650014         0.826979963         0.711599986
    12    1     0.464349986         0.173019999         0.288399984
    13    1     0.737799994         0.593760003         0.187300001
    14    1     0.262200006         0.406239997         0.812700030
    15    1     0.762200006         0.406239997         0.687299970
    16    1     0.237799994         0.593760003         0.312699999
    17    1     0.262200006         0.093760012         0.812700030
    18    1     0.737799994         0.906239959         0.187300001
    19    1     0.237799994         0.906239959         0.312699999
    20    1     0.762200006         0.093760012         0.687299970
    21    2     0.831400004         0.700499978         0.067000003
    22    2     0.168600018         0.299499984         0.932999974
    23    2     0.668600039         0.299499984         0.567000026
    24    2     0.331399918         0.700499978         0.433000004
    25    2     0.168600018         0.200500016         0.932999974
    26    2     0.831400004         0.799500022         0.067000003
    27    2     0.331399918         0.799500022         0.433000004
    28    2     0.668600039         0.200500016         0.567000026
    29    2     0.936599992         0.721599975         0.926999990
    30    2     0.063399971         0.278400006         0.073000003
    31    2     0.563399966         0.278400006         0.426999990
    32    2     0.436599949         0.721599975         0.573000010
    33    2     0.063399971         0.221600051         0.073000003
    34    2     0.936599992         0.778400025         0.926999990
    35    2     0.436599949         0.778400025         0.573000010
    36    2     0.563399966         0.221600051         0.426999990
    37    2     0.831100011         0.644299993         0.061000000
    38    2     0.168900010         0.355700007         0.939000019
    39    2     0.668900031         0.355700007         0.560999981
    40    2     0.331099990         0.644299993         0.439000019
    41    2     0.168900010         0.144299983         0.939000019
    42    2     0.831100011         0.855700007         0.061000000
    43    2     0.331099990         0.855700007         0.439000019
    44    2     0.668900031         0.144299983         0.560999981
    45    2     0.936099976         0.623799984         0.919999988
    46    2     0.063899992         0.376200016         0.079999997
    47    2     0.563899981         0.376200016         0.420000018
    48    2     0.436100019         0.623799984         0.580000012
    49    2     0.063899992         0.123800041         0.079999997
    50    2     0.936099976         0.876200016         0.919999988
    51    2     0.436100019         0.876200016         0.580000012
    52    2     0.563899981         0.123800041         0.420000018
    53    2     0.940100013         0.567499989         0.912000029
    54    2     0.059899987         0.432500011         0.088000001
    55    2     0.559899987         0.432500011         0.411999999
    56    2     0.440099971         0.567499989         0.587999971
    57    2     0.059899987         0.067499993         0.088000001
    58    2     0.940100013         0.932500011         0.912000029
    59    2     0.440099971         0.932500011         0.587999971
    60    2     0.559899987         0.067499993         0.411999999
    61    2     0.838999946         0.546400029         0.047999999
    62    2     0.161000012         0.453599971         0.952000005
    63    2     0.661000012         0.453599971         0.547999995
    64    2     0.338999988         0.546400029         0.452000005
    65    2     0.161000012         0.046400072         0.952000005
    66    2     0.838999946         0.953600009         0.047999999
    67    2     0.338999988         0.953600009         0.452000005
    68    2     0.661000012         0.046400072         0.547999995
    69    3     0.004999995         0.547200040         0.823600015
    70    3     0.995000018         0.452799960         0.176400000
    71    3     0.495000018         0.452799960         0.323599984
    72    3     0.504999982         0.547200040         0.676399985
    73    3     0.995000018         0.047199964         0.176400000
    74    3     0.004999995         0.952799998         0.823600015
    75    3     0.504999982         0.952799998         0.676399985
    76    3     0.495000018         0.047199964         0.323599984
    77    3     0.825099999         0.509199967         0.065500000
    78    3     0.174899991         0.490800033         0.934500000
    79    3     0.674900001         0.490800033         0.565500000
    80    3     0.325099935         0.509199967         0.434500000
    81    3     0.174899991         0.009199977         0.934500000
    82    3     0.825099999         0.990799995         0.065500000
    83    3     0.325099935         0.990799995         0.434500000
    84    3     0.674900001         0.009199977         0.565500000
        0.0000000000         0.0000000000         0.0000000000
       11.1709995270         0.0000000000         0.0000000000
        0.0000000000        25.0979995728         0.0000000000
        0.0000000000         0.0000000000         3.8852000237
}

Driver = ConjugateGradient {
  LatticeOpt = Yes
  MovedAtoms = 1:-1
  MaxForceComponent = 1.0e-4 # 0.0001
  #MaxSteps = 1000
  #OutputPrefix = "geom.out"
}

Hamiltonian = DFTB {
  SCC = Yes
  SCCTolerance = 1.0e-3 # 0.001
  Charge =  0.0
  SlaterKosterFiles = Type2FileNames {
    Prefix = ".\mio-1-1\"
    Separator = "-"
    Suffix = ".skf"
  }
  KPointsAndWeights = SupercellFolding {
    1 0 0
    0 1 0
    0 0 3
    0.0 0.0 0.0
  }
  MaxAngularMomentum {
    S = "d"
    C = "p"
    H = "s"
  }
  #ThirdOrderFull = Yes
  #HubbardDerivs {
  #  C = -0.1492
  #  H = -0.1857
    #O = -0.1575
    #N = -0.1535
    #S = -0.11
    #P = -0.14
  #}
  #DampXH = Yes
  #DampXHExponent = 4.00
  #HCorrection = H5 {}
  Dispersion = DftD3 {
    Damping = BeckeJohnson {
      a1 = 0.5719
      a2 = 3.6017
    }
    s6 = 1.0
    s8 = 0.5883
    #Threebody = Yes
  }
}

Options = {
  WriteAutotestTag = Yes
}

Analysis = {
  CalculateForces = Yes
}

ParserOptions = {
  ParserVersion = 6
}

#Parallel {
  # Allow OMP threads explicitely to test for hybrid parallelisation with
  # MPI-binary. (Check the manual before using this in production runs!)
#  UseOmpThreads = Yes
#}