Geometry = GenFormat {
280  F
 C H
     1    1     0.027370000         0.000000000         0.000000000
     2    1     0.972630056         0.000000000         0.000000000
     3    1     0.972630056         0.500000000         0.500000000
     4    1     0.027370000         0.500000000         0.500000000
     5    1     0.527369980         0.500000000         0.000000000
     6    1     0.472629985         0.500000000         0.000000000
     7    1     0.472629985         0.000000000         0.500000000
     8    1     0.527369980         0.000000000         0.500000000
     9    1     0.053139999         0.855360062         0.049139999
    10    1     0.946860023         0.144640005         0.950860038
    11    1     0.946860023         0.644639938         0.549139962
    12    1     0.053139999         0.355359995         0.450860005
    13    1     0.946860023         0.355359995         0.450860005
    14    1     0.053139999         0.644639938         0.549139962
    15    1     0.053139999         0.144640005         0.950860038
    16    1     0.946860023         0.855360062         0.049139999
    17    1     0.553139977         0.355359995         0.049139999
    18    1     0.446860023         0.644639938         0.950860038
    19    1     0.446860023         0.144640005         0.549139962
    20    1     0.553139977         0.855360062         0.450860005
    21    1     0.446860023         0.855360062         0.450860005
    22    1     0.553139977         0.144640005         0.549139962
    23    1     0.553139977         0.644639938         0.950860038
    24    1     0.446860023         0.355359995         0.049139999
    25    1     0.026780001         0.704219976         0.087549997
    26    1     0.973220010         0.295779991         0.912450003
    27    1     0.973220010         0.795780024         0.587549997
    28    1     0.026780001         0.204219992         0.412450003
    29    1     0.973220010         0.204219992         0.412450003
    30    1     0.026780001         0.795780024         0.587549997
    31    1     0.026780001         0.295779991         0.912450003
    32    1     0.973220010         0.704219976         0.087549997
    33    1     0.526780025         0.204219992         0.087549997
    34    1     0.473219975         0.795780024         0.912450003
    35    1     0.473219975         0.295779991         0.587549997
    36    1     0.526780025         0.704219976         0.412450003
    37    1     0.473219975         0.704219976         0.412450003
    38    1     0.526780025         0.295779991         0.587549997
    39    1     0.526780025         0.795780024         0.912450003
    40    1     0.473219975         0.204219992         0.087549997
    41    1     0.051910002         0.552460001         0.134120001
    42    1     0.948089985         0.447539999         0.865880016
    43    1     0.948089985         0.947539999         0.634119984
    44    1     0.051910002         0.052460013         0.365880016
    45    1     0.948089985         0.052460013         0.365880016
    46    1     0.051910002         0.947539999         0.634119984
    47    1     0.051910002         0.447539999         0.865880016
    48    1     0.948089985         0.552460001         0.134120001
    49    1     0.551909979         0.052460013         0.134120001
    50    1     0.448089985         0.947539999         0.865880016
    51    1     0.448089985         0.447539999         0.634119984
    52    1     0.551909979         0.552460001         0.365880016
    53    1     0.448089985         0.552460001         0.365880016
    54    1     0.551909979         0.447539999         0.634119984
    55    1     0.551909979         0.947539999         0.865880016
    56    1     0.448089985         0.052460013         0.134120001
    57    1     0.026459999         0.410660037         0.175339990
    58    1     0.973539978         0.589339996         0.824660027
    59    1     0.973539978         0.089339971         0.675339973
    60    1     0.026459999         0.910660004         0.324659993
    61    1     0.973539978         0.910660004         0.324659993
    62    1     0.026459999         0.089339971         0.675339973
    63    1     0.026459999         0.589339996         0.824660027
    64    1     0.973539978         0.410660037         0.175339990
    65    1     0.526459986         0.910660004         0.175339990
    66    1     0.473540014         0.089339971         0.824660027
    67    1     0.473540014         0.589339996         0.675339973
    68    1     0.526459986         0.410660037         0.324659993
    69    1     0.473540014         0.410660037         0.324659993
    70    1     0.526459986         0.589339996         0.675339973
    71    1     0.526459986         0.089339971         0.824660027
    72    1     0.473540014         0.910660004         0.175339990
    73    1     0.107600000         0.865520019         0.072740003
    74    1     0.892400018         0.134479998         0.927259972
    75    1     0.892400018         0.634479981         0.572740028
    76    1     0.107600000         0.365519985         0.427259972
    77    1     0.892400018         0.365519985         0.427259972
    78    1     0.107600000         0.634479981         0.572740028
    79    1     0.107600000         0.134479998         0.927259972
    80    1     0.892400018         0.865520019         0.072740003
    81    1     0.607599947         0.365519985         0.072740003
    82    1     0.392399982         0.634479981         0.927259972
    83    1     0.392399982         0.134479998         0.572740028
    84    1     0.607599947         0.865520019         0.427259972
    85    1     0.392399982         0.865520019         0.427259972
    86    1     0.607599947         0.134479998         0.572740028
    87    1     0.607599947         0.634479981         0.927259972
    88    1     0.392399982         0.365519985         0.072740003
    89    1     0.142920001         0.751830004         0.028809999
    90    1     0.857079999         0.248169996         0.971189990
    91    1     0.857079999         0.748169996         0.528810010
    92    1     0.142920001         0.251829987         0.471189990
    93    1     0.857079999         0.251829987         0.471189990
    94    1     0.142920001         0.748169996         0.528810010
    95    1     0.142920001         0.248169996         0.971189990
    96    1     0.857079999         0.751830004         0.028809999
    97    1     0.642920037         0.251829987         0.028809999
    98    1     0.357079999         0.748169996         0.971189990
    99    1     0.357079999         0.248169996         0.528810010
   100    1     0.642920037         0.751830004         0.471189990
   101    1     0.357079999         0.751830004         0.471189990
   102    1     0.642920037         0.248169996         0.528810010
   103    1     0.642920037         0.748169996         0.971189990
   104    1     0.357079999         0.251829987         0.028809999
   105    1     0.191989997         0.749109970         0.059790000
   106    1     0.808009967         0.250889980         0.940209971
   107    1     0.808009967         0.750890030         0.559790029
   108    1     0.191989997         0.249110020         0.440209971
   109    1     0.808009967         0.249110020         0.440209971
   110    1     0.191989997         0.750890030         0.559790029
   111    1     0.191989997         0.250889980         0.940209971
   112    1     0.808009967         0.749109970         0.059790000
   113    1     0.691989997         0.249110020         0.059790000
   114    1     0.308009967         0.750890030         0.940209971
   115    1     0.308009967         0.250889980         0.559790029
   116    1     0.691989997         0.749109970         0.440209971
   117    1     0.308009967         0.749109970         0.440209971
   118    1     0.691989997         0.250889980         0.559790029
   119    1     0.691989997         0.750890030         0.940209971
   120    1     0.308009967         0.249110020         0.059790000
   121    1     0.206850001         0.861099997         0.134480003
   122    1     0.793150034         0.138899994         0.865519980
   123    1     0.793150034         0.638900003         0.634480020
   124    1     0.206850001         0.361100031         0.365520014
   125    1     0.793150034         0.361100031         0.365520014
   126    1     0.206850001         0.638900003         0.634480020
   127    1     0.206850001         0.138899994         0.865519980
   128    1     0.793150034         0.861099997         0.134480003
   129    1     0.706850001         0.361100031         0.134480003
   130    1     0.293149999         0.638900003         0.865519980
   131    1     0.293149999         0.138899994         0.634480020
   132    1     0.706850001         0.861099997         0.365520014
   133    1     0.293149999         0.861099997         0.365520014
   134    1     0.706850001         0.138899994         0.634480020
   135    1     0.706850001         0.638900003         0.865519980
   136    1     0.293149999         0.361100031         0.134480003
   137    1     0.172189996         0.974900011         0.178570007
   138    1     0.827809968         0.025100000         0.821429976
   139    1     0.827809968         0.525099989         0.678570024
   140    1     0.172189996         0.474900011         0.321430009
   141    1     0.827809968         0.474900011         0.321430009
   142    1     0.172189996         0.525099989         0.678570024
   143    1     0.172189996         0.025100000         0.821429976
   144    1     0.827809968         0.974900011         0.178570007
   145    1     0.672189996         0.474900011         0.178570007
   146    1     0.327810004         0.525099989         0.821429976
   147    1     0.327810004         0.025100000         0.678570024
   148    1     0.672189996         0.974900011         0.321430009
   149    1     0.327810004         0.974900011         0.321430009
   150    1     0.672189996         0.025100000         0.678570024
   151    1     0.672189996         0.525099989         0.821429976
   152    1     0.327810004         0.474900011         0.178570007
   153    1     0.123020002         0.976380001         0.148159988
   154    1     0.876980034         0.023620001         0.851840046
   155    1     0.876980034         0.523619999         0.648159954
   156    1     0.123020002         0.476380001         0.351840012
   157    1     0.876980034         0.476380001         0.351840012
   158    1     0.123020002         0.523619999         0.648159954
   159    1     0.123020002         0.023620001         0.851840046
   160    1     0.876980034         0.976380001         0.148159988
   161    1     0.623020002         0.476380001         0.148159988
   162    1     0.376979998         0.523619999         0.851840046
   163    1     0.376979998         0.023620001         0.648159954
   164    1     0.623020002         0.976380001         0.351840012
   165    1     0.376979998         0.976380001         0.351840012
   166    1     0.623020002         0.023620001         0.648159954
   167    1     0.623020002         0.523619999         0.851840046
   168    1     0.376979998         0.476380001         0.148159988
   169    2     0.088299994         0.552999984         0.135700004
   170    2     0.911699988         0.446999983         0.864300021
   171    2     0.911699988         0.947000049         0.635699979
   172    2     0.088299994         0.053000005         0.364300021
   173    2     0.911699988         0.053000005         0.364300021
   174    2     0.088299994         0.947000049         0.635699979
   175    2     0.088299994         0.446999983         0.864300021
   176    2     0.911699988         0.552999984         0.135700004
   177    2     0.588299976         0.053000005         0.135700004
   178    2     0.411700024         0.947000049         0.864300021
   179    2     0.411700024         0.446999983         0.635699979
   180    2     0.588299976         0.552999984         0.364300021
   181    2     0.411700024         0.552999984         0.364300021
   182    2     0.588299976         0.446999983         0.635699979
   183    2     0.588299976         0.947000049         0.864300021
   184    2     0.411700024         0.053000005         0.135700004
   185    2     0.043800001         0.310999975         0.206499994
   186    2     0.956199973         0.689000025         0.793500023
   187    2     0.956199973         0.189000009         0.706499977
   188    2     0.043800001         0.810999975         0.293500023
   189    2     0.956199973         0.810999975         0.293500023
   190    2     0.043800001         0.189000009         0.706499977
   191    2     0.043800001         0.689000025         0.793500023
   192    2     0.956199973         0.310999975         0.206499994
   193    2     0.543799992         0.810999975         0.206499994
   194    2     0.456200008         0.189000009         0.793500023
   195    2     0.456200008         0.689000025         0.706499977
   196    2     0.543799992         0.310999975         0.293500023
   197    2     0.456200008         0.310999975         0.293500023
   198    2     0.543799992         0.689000025         0.706499977
   199    2     0.543799992         0.189000009         0.793500023
   200    2     0.456200008         0.810999975         0.206499994
   201    2     0.132799996         0.672999977         0.974399976
   202    2     0.867200004         0.326999989         0.025599999
   203    2     0.867200004         0.827000023         0.474400009
   204    2     0.132799996         0.173000011         0.525600024
   205    2     0.867200004         0.173000011         0.525600024
   206    2     0.132799996         0.827000023         0.474400009
   207    2     0.132799996         0.326999989         0.025599999
   208    2     0.867200004         0.672999977         0.974399976
   209    2     0.632799961         0.173000011         0.974399976
   210    2     0.367200004         0.827000023         0.025599999
   211    2     0.367200004         0.326999989         0.474400009
   212    2     0.632799961         0.672999977         0.525600024
   213    2     0.367200004         0.672999977         0.525600024
   214    2     0.632799961         0.326999989         0.474400009
   215    2     0.632799961         0.827000023         0.025599999
   216    2     0.367200004         0.173000011         0.974399976
   217    2     0.216700002         0.667999971         0.027900000
   218    2     0.783300016         0.331999996         0.972100044
   219    2     0.783300016         0.832000029         0.527899989
   220    2     0.216700002         0.168000021         0.472099977
   221    2     0.783300016         0.168000021         0.472099977
   222    2     0.216700002         0.832000029         0.527899989
   223    2     0.216700002         0.331999996         0.972100044
   224    2     0.783300016         0.667999971         0.027900000
   225    2     0.716700020         0.168000021         0.027900000
   226    2     0.283299980         0.832000029         0.972100044
   227    2     0.283299980         0.331999996         0.527899989
   228    2     0.716700020         0.667999971         0.472099977
   229    2     0.283299980         0.667999971         0.472099977
   230    2     0.716700020         0.331999996         0.527899989
   231    2     0.716700020         0.832000029         0.972100044
   232    2     0.283299980         0.168000021         0.027900000
   233    2     0.241300005         0.860000013         0.154599990
   234    2     0.758699995         0.140000003         0.845399943
   235    2     0.758699995         0.639999987         0.654600057
   236    2     0.241300005         0.360000013         0.345400010
   237    2     0.758699995         0.360000013         0.345400010
   238    2     0.241300005         0.639999987         0.654600057
   239    2     0.241300005         0.140000003         0.845399943
   240    2     0.758699995         0.860000013         0.154599990
   241    2     0.741299969         0.360000013         0.154599990
   242    2     0.258700013         0.639999987         0.845399943
   243    2     0.258700013         0.140000003         0.654600057
   244    2     0.741299969         0.860000013         0.345400010
   245    2     0.258700013         0.860000013         0.345400010
   246    2     0.741299969         0.140000003         0.654600057
   247    2     0.741299969         0.639999987         0.845399943
   248    2     0.258700013         0.360000013         0.154599990
   249    2     0.182499996         0.054000000         0.231099989
   250    2     0.817500004         0.945999955         0.768900045
   251    2     0.817500004         0.446000021         0.731099955
   252    2     0.182499996         0.554000012         0.268900011
   253    2     0.817500004         0.554000012         0.268900011
   254    2     0.182499996         0.446000021         0.731099955
   255    2     0.182499996         0.945999955         0.768900045
   256    2     0.817500004         0.054000000         0.231099989
   257    2     0.682500032         0.554000012         0.231099989
   258    2     0.317500004         0.446000021         0.768900045
   259    2     0.317500004         0.945999955         0.731099955
   260    2     0.682500032         0.054000000         0.268900011
   261    2     0.317500004         0.054000000         0.268900011
   262    2     0.682500032         0.945999955         0.731099955
   263    2     0.682500032         0.446000021         0.768900045
   264    2     0.317500004         0.554000012         0.231099989
   265    2     0.097799999         0.054000000         0.180399997
   266    2     0.902199983         0.945999955         0.819600003
   267    2     0.902199983         0.446000021         0.680399997
   268    2     0.097799999         0.554000012         0.319599970
   269    2     0.902199983         0.554000012         0.319599970
   270    2     0.097799999         0.446000021         0.680399997
   271    2     0.097799999         0.945999955         0.819600003
   272    2     0.902199983         0.054000000         0.180399997
   273    2     0.597799981         0.554000012         0.180399997
   274    2     0.402199983         0.446000021         0.819600003
   275    2     0.402199983         0.945999955         0.680399997
   276    2     0.597799981         0.054000000         0.319599970
   277    2     0.402199983         0.054000000         0.319599970
   278    2     0.597799981         0.945999955         0.680399997
   279    2     0.597799981         0.446000021         0.819600003
   280    2     0.402199983         0.554000012         0.180399997
        0.0000000000         0.0000000000         0.0000000000
       26.7889995575         0.0000000000         0.0000000000
        0.0000000000         7.1700000763         0.0000000000
        0.0000000000         0.0000000000        14.2110004425
}

Driver = ConjugateGradient {
  LatticeOpt = Yes
  MovedAtoms = 1:-1
  MaxForceComponent = 1.0e-4 # 0.0001
  #MaxSteps = 1000
  #OutputPrefix = "geom.out"
}

Hamiltonian = DFTB {
  SCC = Yes
  SCCTolerance = 1.0e-3 # 0.001
  Charge =  0.0
  SlaterKosterFiles = Type2FileNames {
    Prefix = ".\mio-1-1\"
    Separator = "-"
    Suffix = ".skf"
  }
  KPointsAndWeights = SupercellFolding {
    1 0 0
    0 2 0
    0 0 1
    0.0 0.0 0.0
  }
  MaxAngularMomentum {
    C = "p"
    H = "s"
  }
  #ThirdOrderFull = Yes
  #HubbardDerivs {
  #  C = -0.1492
  #  H = -0.1857
    #O = -0.1575
    #N = -0.1535
    #S = -0.11
    #P = -0.14
  #}
  #DampXH = Yes
  #DampXHExponent = 4.00
  #HCorrection = H5 {}
  Dispersion = DftD3 {
    Damping = BeckeJohnson {
      a1 = 0.5719
      a2 = 3.6017
    }
    s6 = 1.0
    s8 = 0.5883
    #Threebody = Yes
  }
}

Options = {
  WriteAutotestTag = Yes
}

Analysis = {
  CalculateForces = Yes
}

ParserOptions = {
  ParserVersion = 6
}

#Parallel {
  # Allow OMP threads explicitely to test for hybrid parallelisation with
  # MPI-binary. (Check the manual before using this in production runs!)
#  UseOmpThreads = Yes
#}