Geometry = GenFormat {
34 S
C H
1 2 0.0 0.000000000000 0.199169877299997
2 2 0.0 0.000000000000 2.640830123
25 1 0.964322000000003 0.000000000000 0.709999999999999
26 1 0.964322000000003 0.000000000000 2.13
49 1 2.19407807 0.000000000000 0
50 1 2.19407807 0.000000000000 2.84
73 1 3.42383415 0.000000000000 0.709999999999999
74 1 3.42383415 0.000000000000 2.13
97 1 4.65359022 0.000000000000 0
98 1 4.65359022 0.000000000000 2.84
121 1 5.88334629 0.000000000000 0.709999999999999
122 1 5.88334629 0.000000000000 2.13
145 1 7.11310237 0.000000000000 0
146 1 7.11310237 0.000000000000 2.84
169 1 8.34285844 0.000000000000 0.709999999999999
170 1 8.34285844 0.000000000000 2.13
193 1 9.57261451 0.000000000000 0
194 1 9.57261451 0.000000000000 2.84
217 1 10.80237059 0.000000000000 0.709999999999999
218 1 10.80237059 0.000000000000 2.13
241 1 12.03212666 0.000000000000 0
242 1 12.03212666 0.000000000000 2.84
265 1 13.26188273 0.000000000000 0.709999999999999
266 1 13.26188273 0.000000000000 2.13
289 1 14.49163881 0.000000000000 0
290 1 14.49163881 0.000000000000 2.84
313 1 15.72139488 0.000000000000 0.709999999999999
314 1 15.72139488 0.000000000000 2.13
337 1 16.95115095 0.000000000000 0
338 1 16.95115095 0.000000000000 2.84
361 1 18.18090703 0.000000000000 0.709999999999999
362 1 18.18090703 0.000000000000 2.13
385 2 19.14529581 0.000000000000 0.199106264299999
386 2 19.14529581 0.000000000000 2.640893736
0.0 0.0 0.0
500.0 0.0 0.0
0.0 500.0 0.0
0.0 0.0 4.26
}
Hamiltonian = DFTB {
  SCC = Yes
  MaxAngularMomentum = {
    C = "p"
    H = "s"
  }
  Filling = Fermi {
    Temperature [Kelvin] = 300
    IndependentKFilling = No
  }
  SlaterKosterFiles = Type2FileNames {
    Prefix = ".\3ob-3-1\"
    Separator = "-"
    Suffix = ".skf"
    LowerCaseTypeName = No
  }
  KPointsAndWeights = KLines {
1  0.0  0.0  0.0
40  0.0  0.0  0.5
  }
  ReadInitialCharges = Yes
  MaxSCCIterations = 1
  Differentiation = FiniteDiff {
    Delta = 1.0000000000000000E-002
  }
  PolynomialRepulsive = {}
  OrbitalResolvedSCC = No
  OldSKInterpolation = No
  SCCTolerance = 1.0000000000000001E-005
  Mixer = Broyden {
    MixingParameter = 0.20000000000000001
    CachedIterations = -1
    InverseJacobiWeight = 1.0000000000000000E-002
    MinimalWeight = 1.0000000000000000
    MaximalWeight = 100000.00000000000
    WeightFactor = 1.0000000000000000E-002
  }
  DampXH = No
  EwaldParameter = 0.0000000000000000
  SpinPolarisation = {}
  ElectricField = {}
  Eigensolver = RelativelyRobust {}
  Charge = 0.0000000000000000
  Dispersion = {}
  ThirdOrder = No
  ThirdOrderFull = No
  ForceEvaluation = "Traditional"
}
Options = {
  WriteDetailedXML = Yes
  WriteDetailedOut = No
  WriteAutotestTag = No
  WriteResultsTag = No
  RestartFrequency = 20
  RandomSeed = 0
  WriteHS = No
  WriteRealHS = No
  MinimiseMemoryUsage = No
  ShowFoldedCoords = No
}
ParserOptions = {
  ParserVersion = 5
  WriteHSDInput = Yes
  WriteXMLInput = No
  StopAfterParsing = No
  IgnoreUnprocessedNodes = No
}
Analysis = {
  WriteEigenvectors = Yes
  ProjectStates = {}
  MullikenAnalysis = Yes
  AtomResolvedEnergies = No
  EigenvectorsAsTxt = No
  WriteBandOut = Yes
  CalculateForces = No
}
Driver = {}
ExcitedState = {}
