Geometry = GenFormat {
20  F
 Al O
     1    1     0.252151995         0.030513999         0.390394974
     2    1     0.252151995         0.469485998         0.609604993
     3    1     0.247848005         0.530514002         0.109605001
     4    1     0.247848005         0.969486046         0.890395007
     5    1     0.747847981         0.969486046         0.609604993
     6    1     0.747847981         0.530514002         0.390394974
     7    1     0.752152019         0.469485998         0.890395007
     8    1     0.752152019         0.030513999         0.109605001
     9    2     0.107021001         0.101976002         0.654001995
    10    2     0.107021001         0.398023998         0.345998005
    11    2     0.392978999         0.601975954         0.845998005
    12    2     0.392978999         0.898024046         0.154001995
    13    2     0.892979024         0.898024046         0.345998005
    14    2     0.892979024         0.601975954         0.654001995
    15    2     0.607020976         0.398023998         0.154001995
    16    2     0.607020976         0.101976002         0.845998005
    17    2     0.049403998         0.250000000         0.000000000
    18    2     0.450596006         0.749999976         0.500000000
    19    2     0.950595956         0.749999976         0.000000000
    20    2     0.549404044         0.250000000         0.500000000
        0.0000000000         0.0000000000         0.0000000000
        4.8469328880         0.0000000000         0.0000000000
        0.0000000000         4.9854044914         0.0000000000
        0.0000000000         0.0000000000         7.0899410248
}

#Driver = {}
Driver = ConjugateGradient {
  LatticeOpt = Yes
  MovedAtoms = 1:-1
}

Hamiltonian = DFTB {
  SCC = Yes
  #SCCTolerance = 1.0E-8
  MaxSCCIterations = 1000
  Mixer = Broyden {}
  MaxAngularMomentum = {
    Al = "p"
     O = "p"
  }
  Charge = 0.0
  Filling = Fermi {
    Temperature [Kelvin] = 1.000000000000000E-006
  }
  SlaterKosterFiles = Type2FileNames {
    Prefix = ".\matsci-0-3_AlOH\"
    Separator = "-"
    Suffix = ".skf"
  }
  KPointsAndWeights = SupercellFolding {
   3 0 0
   0 3 0
   0 0 2
   0.0 0.0 0.5
  }
}

Options = {
  WriteAutotestTag = Yes
}

Analysis = {
  CalculateForces = Yes
}

ParserOptions = {
  ParserVersion = 6
}

#Parallel {
  # Allow OMP threads explicitely to test for hybrid parallelisation with
  # MPI-binary. (Check the manual before using this in production runs!)
#  UseOmpThreads = Yes
#}

